c array.sh: path:     /data/qbf/qbf20/PCNF/axquery_query71_1344n.qdimacs
c array.sh: name:     axquery_query71_1344n
c array.sh: task:     8
c array.sh: host:     c3n04
c array.sh: uname:    Linux c3n04 4.15.0-135-generic #139-Ubuntu SMP Mon Jan 18 17:38:24 UTC 2021 x86_64 x86_64 x86_64 GNU/Linux
c array.sh: start:    Thu Feb 18 09:53:05 CET 2021
c array.sh: noturbo:  1
c array.sh: governor: 32 performance
c array.sh: tmp:      1%
c array.sh: unzipped: /tmp/local-unzipped-18838260-8-axquery_query71_1344n.cnf
*** qbfcert: using tmp directory:
*** qbfcert:   /tmp
trace-size: 3383101
solving-res 20
proof-size: 29599
cert-size: 2174
cert-header: aag 505 447 0 36 36
merged-header: p cnf 4833 11576
merged-size: 162844
c ---- [ banner ] ------------------------------------------------------------
c
c KISSAT SAT Solver
c Copyright (c) 2019-2020 Armin Biere JKU Linz
c 
c Version 1.0.3 59813addcacc4d6fb880ebdd63685600475aa940
c gcc (Ubuntu 7.5.0-3ubuntu1~18.04) 7.5.0 -W -Wall -O3 -DNEMBEDDED -DNDEBUG -DNMETRICS -DNSTATISTICS
c Sun Feb 14 23:58:54 CET 2021 Linux cluster3 4.15.0-135-generic x86_64
c
c ---- [ parsing ] -----------------------------------------------------------
c
c opened and reading DIMACS file:
c 
c   /tmp/qbfcert_merged_cnf15463.cnf
c 
c parsed 'p cnf 4833 11576' header
c closing input after reading 162844 bytes (159 KB)
c finished parsing after 0.00 seconds
c
c ---- [ solving ] -----------------------------------------------------------
c
c  seconds reductions redundant irredundant
c         MB   restarts    trail     variables
c          level  conflicts   glue       remaining
c
c *  0.00  3 0  0  0   0   0 0% 0 11542 769 16%
c {  0.00  3 0  0  0   0   0 0% 0 11542 769 16%
c i  0.00  3 5  0  0   3   2 32% 1 11542 721 15%
c i  0.00  3 6  0  0   4   2 31% 1 11542 674 14%
c }  0.00  3 4  0  0   6   2 24% 1 11542 587 12%
c 0  0.00  3 4  0  0   6   2 24% 1 11542 587 12%
c
c ---- [ result ] ------------------------------------------------------------
c
s UNSATISFIABLE
c
c ---- [ profiling ] ---------------------------------------------------------
c
c           0.00   88.37 %  parse
c           0.00    8.31 %  search
c           0.00    6.20 %  focused
c           0.00    0.00 %  simplify
c =============================================
c           0.00  100.00 %  total
c
c ---- [ statistics ] --------------------------------------------------------
c
c conflicts:                                6             1316.94 per second
c decisions:                               18                3.00 per conflict
c propagations:                          4537           995830    per second
c
c ---- [ resources ] ---------------------------------------------------------
c
c maximum-resident-set-size:          3043328 bytes          3 MB
c process-time:                             0s               0.00 seconds
c
c ---- [ shutting down ] -----------------------------------------------------
c
c exit 20
*** qbfcert: VALID
c array.sh: end:      Thu Feb 18 09:53:05 CET 2021
